Optimal - objective value 360.00000000
      3 z_0_0_0_3                1                    -2.5
     38 z_0_0_3_8                1         -1.66666666666667
     78 z_0_2_2_10               1                       0
    112 z_0_3_1_6                1         -13.3333333333333
    128 z_0_3_3_0                1         -6.66666666666667
    164 z_0_4_1_9                1                     -20
    176 z_0_4_3_1                1                     -10
    188 z_0_4_4_2                1                       0
    221 z_0_5_2_8                1                       0
    237 z_0_7_0_2                1                       0
    248 z_0_7_1_2                1                       0
    284 z_0_7_4_10               1                       0
    298 z_1_4_1_5                1                       0
    313 z_1_4_3_0                1                     -20
    333 z_1_4_4_9                1                       0
    370 z_1_5_3_8                1                       0
    379 z_1_6_0_6                1                       0
    427 z_1_7_0_10               1                       0
    471 z_2_0_0_4                1         3.33333333333333
    497 z_2_0_3_0                1         -3.33333333333333
    537 z_2_2_2_2                1                       0
    556 z_2_2_4_2                1                       0
    573 z_2_4_1_0                1                       0
    603 z_2_4_3_10               1                       0
    605 z_2_4_4_1                1                       0
    637 z_2_5_2_6                1                       0
    661 z_2_6_0_8                1                       0
    703 z_2_7_0_6                1                       0
    754 z_3_1_0_7                1                       0
    766 z_3_1_1_8                1         -13.3333333333333
    816 z_3_2_2_3                1                       0
    836 z_3_2_4_4                1         6.66666666666667
    876 z_3_5_3_6                1                       0
    885 z_3_6_0_4                1                       0
    901 z_3_6_2_1                1                       0
    928 z_3_7_0_3                1                       0
    972 z_3_7_4_8                1                       0
    982 z_4_0_0_7                1         -1.77635683940025e-15
   1006 z_4_0_3_1                1                       5
   1033 z_4_1_0_9                1                       0
   1045 z_4_1_1_10               1                      20
   1090 z_4_2_2_0                1                       0
   1115 z_4_2_4_6                1                       0
   1135 z_4_4_1_7                1                      10
   1156 z_4_4_3_8                1                      10
   1170 z_5_1_0_0                1                       0
   1187 z_5_1_1_6                1         -13.3333333333333
   1237 z_5_2_2_1                1                       0
   1258 z_5_2_4_3                1                      20
   1282 z_5_3_1_8                1                       0
   1297 z_5_3_3_1                1                       0
   1341 z_5_5_2_10               1                       0
   1352 z_5_5_3_10               1                      20
   1358 z_5_6_0_5                1                       0
   1379 z_5_6_2_7                1                       0
   1442 z_5_7_4_6                1                       0
   1447 w_0_0                    1                      20
   1450 w_0_3                    1         11.6666666666667
   1452 w_1_0                    1                       0
   1453 w_1_1                    1                       0
   1459 w_2_2                    1                      20
   1461 w_2_4                    1                       0
   1463 w_3_1                    1                      20
   1465 w_3_3                    1                      20
   1468 w_4_1                    1                       0
   1470 w_4_3                    1                       0
   1471 w_4_4                    1                       0
   1474 w_5_2                    1                      20
   1475 w_5_3                    1                       0
   1477 w_6_0                    1                      20
   1479 w_6_2                    1                      20
   1482 w_7_0                    1                      20
   1483 w_7_1                    1                      20
   1486 w_7_4                    1                      20
   1488 o_0_0_1                  1                       0
   1489 o_0_0_2                  1         -6.66666666666667
   1490 o_0_0_3                  1                       0
   1491 o_0_0_4                  1                       0
   1505 o_0_3_0                  1                       0
   1506 o_0_3_1                  1                       0
   1507 o_0_3_2                  1                       0
   1508 o_0_3_3     1.000000000001         -6.66666666666667
   1517 o_1_0_0    1.0000000000005                       0
   1518 o_1_0_1    0.99999999999925                       0
   1519 o_1_0_2    0.99999999999825                       0
   1520 o_1_0_3     0.999999999999                       0
   1521 o_1_0_4    0.99999999999925                       0
   1523 o_1_1_0                  1                       0
   1524 o_1_1_1     1.000000000001                       0
   1525 o_1_1_2     1.000000000001                       0
   1526 o_1_1_3                  1                       0
   1527 o_1_1_4                  1                       0
   1528 o_1_1_5                  1                       0
   1559 o_2_2_0                  1                       0
   1560 o_2_2_1    0.9999999999995                       0
   1561 o_2_2_2                  1                       0
   1562 o_2_2_3                  1                       0
   1563 o_2_2_4                  1                       0
   1564 o_2_2_5                  1                       0
   1571 o_2_4_0                  1                       0
   1572 o_2_4_1     0.999999999999                       0
   1573 o_2_4_2     1.000000000001                       0
   1574 o_2_4_3                  1                       0
   1575 o_2_4_4                  1                       0
   1583 o_3_1_0                  1                       0
   1584 o_3_1_1                  1                       0
   1585 o_3_1_2                  1                       0
   1586 o_3_1_3     0.999999999998                       0
   1595 o_3_3_0                  1                       0
   1596 o_3_3_1     0.999999999999                       0
   1613 o_4_1_0                  1                       0
   1614 o_4_1_1                  1                       0
   1615 o_4_1_2                  1                       0
   1616 o_4_1_3                  1                       0
   1617 o_4_1_4                  1                       0
   1618 o_4_1_5                  1                       0
   1625 o_4_3_0                  1                       0
   1626 o_4_3_1     1.000000000001                       0
   1627 o_4_3_2                  1                       0
   1628 o_4_3_3                  1                     -10
   1629 o_4_3_4     0.999999999999                       0
   1630 o_4_3_5                  1                       0
   1632 o_4_4_1     0.999999999997                       0
   1633 o_4_4_2                  1                       0
   1634 o_4_4_3     1.000000000001                       0
   1635 o_4_4_4                  1                       0
   1649 o_5_2_0                  1                       0
   1650 o_5_2_1     1.000000000003                       0
   1651 o_5_2_2     1.000000000001                       0
   1652 o_5_2_3                  1                       0
   1653 o_5_2_4     0.999999999998                       0
   1654 o_5_2_5                  1                       0
   1655 o_5_3_0     1.000000000001                       0
   1656 o_5_3_1                  1                       0
   1657 o_5_3_2                  1                       0
   1658 o_5_3_3     1.000000000002                       0
   1659 o_5_3_4                  1                       0
   1660 o_5_3_5                  1                       0
   1667 o_6_0_0                  1                       0
   1668 o_6_0_1     0.999999999999                       0
   1669 o_6_0_2                  1                       0
   1670 o_6_0_3     1.000000000001                       0
   1671 o_6_0_4                  1                       0
   1672 o_6_0_5                  1                       0
   1680 o_6_2_1     1.000000000001                       0
   1681 o_6_2_2                  1                       0
   1682 o_6_2_3                  1                       0
   1697 o_7_0_0                  1                       0
   1698 o_7_0_1     1.000000000001                       0
   1699 o_7_0_2                  1                       0
   1700 o_7_0_3                  1                       0
   1701 o_7_0_4                  1                       0
   1702 o_7_0_5                  1                       0
   1705 o_7_1_2                  1                       0
   1721 o_7_4_0                  1                       0
   1722 o_7_4_1     1.000000000001                       0
   1723 o_7_4_2     1.000000000001                       0
   1724 o_7_4_3     0.999999999999                       0
   1725 o_7_4_4                  1                       0
   1726 o_7_4_5                  1                       0
   1729 e_0_0_2                  1                       0
   1730 e_0_0_3                  1                       0
   1733 e_0_1_0                  1                       0
   1734 e_0_1_1                  1                       0
   1735 e_0_1_2                  1                       0
   1736 e_0_1_3                  1                       0
   1737 e_0_1_4                  1                       0
   1741 e_0_2_2                  1                       0
   1742 e_0_2_3                  1                       0
   1743 e_0_2_4                  1                       0
   1744 e_0_2_5                  1                       0
   1745 e_0_3_0                  1                       0
   1746 e_0_3_1                  1                       0
   1747 e_0_3_2                  1                       0
   1748 e_0_3_3                  1                       0
   1753 e_0_4_2                  1                       0
   1755 e_0_4_4                  1                       0
   1756 e_0_4_5                  1                       0
   1757 e_1_0_0                  1                       0
   1758 e_1_0_1                  1                       0
   1761 e_1_0_4                  1                       0
   1762 e_1_0_5                  1                       0
   1768 e_1_1_5                  1                       0
   1775 e_1_3_0                  1                       0
   1777 e_1_3_2                  1                       0
   1778 e_1_3_3                  1                       0
   1784 e_1_4_3                  1                       0
   1785 e_1_4_4                  1                       0
   1787 e_2_0_0                  1                       0
   1788 e_2_0_1                  1                       0
   1789 e_2_0_2                  1                       0
   1790 e_2_0_3                  1                       0
   1791 e_2_0_4    0.9999999999995                       0
   1793 e_2_1_0                  1                       0
   1799 e_2_2_0                  1                       0
   1800 e_2_2_1                  1                       0
   1801 e_2_2_2                  1                       0
   1805 e_2_3_0                  1                       0
   1809 e_2_3_4                  1                       0
   1810 e_2_3_5                  1                       0
   1812 e_2_4_1                  1                       0
   1813 e_2_4_2                  1                       0
   1818 e_3_0_1                  1                       0
   1819 e_3_0_2                  1                       0
   1820 e_3_0_3                  1                       0
   1821 e_3_0_4                  1                       0
   1825 e_3_1_2                  1                       0
   1826 e_3_1_3                  1                       0
   1830 e_3_2_1                  1                       0
   1832 e_3_2_3                  1                       0
   1835 e_3_3_0                  1                       0
   1836 e_3_3_1                  1                       0
   1843 e_3_4_2    0.9999999999995                       0
   1844 e_3_4_3                  1                       0
   1845 e_3_4_4     1.000000000001         -6.66666666666667
   1848 e_4_0_1                  1                       0
   1849 e_4_0_2                  1                       0
   1850 e_4_0_3                  1                       0
   1851 e_4_0_4    1.0000000000005                       0
   1854 e_4_1_1     1.000000000001                       0
   1855 e_4_1_2     1.000000000001                       0
   1857 e_4_1_4                  1                       0
   1858 e_4_1_5    1.00000000000067                       0
   1859 e_4_2_0    0.9999999999995                       0
   1866 e_4_3_1                  1                       0
   1867 e_4_3_2                  1                       0
   1868 e_4_3_3                  1                       0
   1871 e_4_4_0                  1                       0
   1872 e_4_4_1                  1                       0
   1877 e_5_0_0                  1                       0
   1882 e_5_0_5                  1                       0
   1883 e_5_1_0                  1                       0
   1884 e_5_1_1                  1                       0
   1885 e_5_1_2                  1                       0
   1886 e_5_1_3                  1                       0
   1890 e_5_2_1                  1                       0
   1891 e_5_2_2     0.999999999999                       0
   1892 e_5_2_3                  1                       0
   1893 e_5_2_4                  1                       0
   1894 e_5_2_5                  1                       0
   1896 e_5_3_1                  1                       0
   1899 e_5_3_4                  1                       0
   1900 e_5_3_5                  1                       0
   1901 e_5_4_0                  1                       0
   1902 e_5_4_1                  1                       0
   1904 e_5_4_3                  1                       0
   1908 af_0_0_0                 1                       0
   1910 af_0_0_1                 1                       0
   1911 bf_0_0_2                 1                       0
   1912 af_0_0_2                 1                       0
   1913 bf_0_0_3                 1                       0
   1914 af_0_0_3                 1                       0
   1915 bf_0_0_4                 1                       0
   1916 af_0_0_4                 1                       0
   1917 bf_0_0_5                 1         -6.66666666666667
   1920 af_0_1_0                 1                       0
   1944 af_0_3_0                 1                       0
   1945 bf_0_3_1                 1                       0
   1946 af_0_3_1    1.000000000001                       0
   1947 bf_0_3_2    0.999999999999                       0
   1948 af_0_3_2                 1                       0
   1949 bf_0_3_3                 1                       0
   1951 bf_0_3_4    0.999999999999                       0
   1953 bf_0_3_5                 1                       0
   1968 af_1_0_0   0.99999999999425                       0
   1969 bf_1_0_1   1.0000000000005                       0
   1970 af_1_0_1   0.99999999999625                       0
   1971 bf_1_0_2   0.99999999999925                       0
   1972 af_1_0_2    0.999999999998                       0
   1973 bf_1_0_3   0.99999999999525                       0
   1974 af_1_0_3                 1                       0
   1975 bf_1_0_4                 1                       0
   1977 bf_1_0_5   0.99999999999925                       0
   1980 af_1_1_0                 1                       0
   1981 bf_1_1_1    1.000000000002                       0
   1982 af_1_1_1    0.999999999999                       0
   1983 bf_1_1_2                 1                       0
   1984 af_1_1_2                 1                       0
   1985 bf_1_1_3                 1                       0
   1986 af_1_1_3                 1                       0
   1987 bf_1_1_4                 1                       0
   1988 af_1_1_4                 1                       0
   1989 bf_1_1_5                 1                       0
   2052 af_2_2_0   0.9999999999995                       0
   2053 bf_2_2_1                 1                       0
   2054 af_2_2_1                 1                       0
   2055 bf_2_2_2   0.9999999999995                       0
   2056 af_2_2_2                 1                       0
   2057 bf_2_2_3                 1                       0
   2058 af_2_2_3    0.999999999999                       0
   2059 bf_2_2_4                 1                       0
   2060 af_2_2_4                 1                       0
   2061 bf_2_2_5                 1                       0
   2076 af_2_4_0    0.999999999999                       0
   2077 bf_2_4_1                 1                       0
   2078 af_2_4_1    0.999999999999                       0
   2079 bf_2_4_2                 1                       0
   2080 af_2_4_2                 1                       0
   2081 bf_2_4_3    1.000000000001                       0
   2082 af_2_4_3                 1                       0
   2083 bf_2_4_4                 1                       0
   2085 bf_2_4_5                 1                       0
   2100 af_3_1_0    0.999999999999                       0
   2101 bf_3_1_1                 1                       0
   2102 af_3_1_1                 1                       0
   2103 bf_3_1_2    0.999999999998                       0
   2104 af_3_1_2                 1                       0
   2105 bf_3_1_3    0.999999999998                       0
   2107 bf_3_1_4    0.999999999998                       0
   2109 bf_3_1_5                 1                       0
   2124 af_3_3_0                 1                       0
   2125 bf_3_3_1    1.000000000001                       0
   2127 bf_3_3_2    1.000000000001                       0
   2129 bf_3_3_3                 1                       0
   2131 bf_3_3_4    1.000000000001                       0
   2133 bf_3_3_5                 1                       0
   2160 af_4_1_0                 1                       0
   2161 bf_4_1_1    1.000000000001                       0
   2162 af_4_1_1                 1                       0
   2163 bf_4_1_2                 1                       0
   2164 af_4_1_2                 1                       0
   2165 bf_4_1_3                 1                       0
   2166 af_4_1_3    1.000000000001                       0
   2167 bf_4_1_4    0.999999999999                       0
   2168 af_4_1_4                 1                       0
   2169 bf_4_1_5                 1                       0
   2184 af_4_3_0    0.999999999999                       0
   2185 bf_4_3_1    1.000000000002                       0
   2186 af_4_3_1                 1                       0
   2187 bf_4_3_2                 1                       0
   2188 af_4_3_2                 1                       0
   2189 bf_4_3_3                 1                       0
   2190 af_4_3_3                 1                       0
   2191 bf_4_3_4    0.999999999999                       0
   2192 af_4_3_4                 1                       0
   2193 bf_4_3_5    0.999999999999                       0
   2196 af_4_4_0    0.999999999995                       0
   2198 af_4_4_1    0.999999999996                       0
   2199 bf_4_4_2    0.999999999994                       0
   2200 af_4_4_2    0.999999999999                       0
   2201 bf_4_4_3    0.999999999995                       0
   2202 af_4_4_3                 1                       0
   2203 bf_4_4_4                 1                       0
   2205 bf_4_4_5                 1                       0
   2232 af_5_2_0                 1                       0
   2233 bf_5_2_1                 1                       0
   2234 af_5_2_1    0.999999999999                       0
   2235 bf_5_2_2    1.000000000003                       0
   2236 af_5_2_2    0.999999999998                       0
   2237 bf_5_2_3                 1                       0
   2238 af_5_2_3    0.999999999998                       0
   2239 bf_5_2_4                 1                       0
   2240 af_5_2_4    0.999999999999                       0
   2241 bf_5_2_5    0.999999999998                       0
   2244 af_5_3_0    0.999999999999                       0
   2245 bf_5_3_1    1.000000000001                       0
   2246 af_5_3_1    0.999999999999                       0
   2247 bf_5_3_2                 1                       0
   2248 af_5_3_2                 1                       0
   2249 bf_5_3_3                 1                       0
   2250 af_5_3_3                 1                       0
   2251 bf_5_3_4    1.000000000001                       0
   2252 af_5_3_4                 1                       0
   2253 bf_5_3_5    0.999999999999                       0
   2268 af_6_0_0    0.999999999998                       0
   2269 bf_6_0_1                 1                       0
   2270 af_6_0_1    0.999999999999                       0
   2271 bf_6_0_2    0.999999999999                       0
   2272 af_6_0_2    0.999999999999                       0
   2273 bf_6_0_3                 1                       0
   2274 af_6_0_3                 1                       0
   2275 bf_6_0_4                 1                       0
   2276 af_6_0_4    1.000000000001                       0
   2277 bf_6_0_5                 1                       0
   2292 af_6_2_0                 1                       0
   2294 af_6_2_1    1.000000000001                       0
   2295 bf_6_2_2                 1                       0
   2296 af_6_2_2    1.000000000001                       0
   2297 bf_6_2_3                 1                       0
   2299 bf_6_2_4    0.999999999999                       0
   2301 bf_6_2_5                 1                       0
   2328 af_7_0_0    0.999999999999                       0
   2329 bf_7_0_1    1.000000000001                       0
   2330 af_7_0_1    0.999999999999                       0
   2331 bf_7_0_2                 1                       0
   2332 af_7_0_2                 1                       0
   2333 bf_7_0_3                 1                       0
   2334 af_7_0_3                 1                       0
   2335 bf_7_0_4    0.999999999999                       0
   2336 af_7_0_4                 1                       0
   2337 bf_7_0_5                 1                       0
   2340 af_7_1_0    0.999999999997                       0
   2342 af_7_1_1    0.999999999999                       0
   2345 bf_7_1_3    1.000000000003                       0
   2347 bf_7_1_4    1.000000000001                       0
   2349 bf_7_1_5                 1                       0
   2376 af_7_4_0    0.999999999999                       0
   2377 bf_7_4_1    1.000000000001                       0
   2378 af_7_4_1    0.999999999999                       0
   2379 bf_7_4_2                 1                       0
   2380 af_7_4_2                 1                       0
   2381 bf_7_4_3                 1                       0
   2382 af_7_4_3    0.999999999999                       0
   2383 bf_7_4_4    0.999999999999                       0
   2384 af_7_4_4    1.000000000001                       0
   2385 bf_7_4_5                 1                       0
